50 8
680 780
624 888
901 819
481 780
421 315
528 738
536 856
842 523
704 131
414 770
866 369
521 325
312 410
161 504
489 486
585 333
618 895
837 253
224 435
882 583
429 773
745 434
281 237
79 844
757 519
468 231
804 900
281 476
728 811
827 341
314 496
884 302
747 963
917 595
227 488
394 506
778 559
577 758
706 686
602 641
857 379
373 603
590 195
315 338
611 257
727 885
434 695
661 789
877 803
248 301
